nNurses = 96;
nHours = 26;
minHours = 3;
maxHours = 9;
maxConsec = 7;
maxPresence = 20;
demand = [25, 28, 31, 28, 23, 27, 28, 27, 25, 29, 28, 28, 33, 31, 26, 25, 23, 26, 21, 17, 21, 24, 22, 23, 21, 18];
